# INCAR: Static SCF for charge density / LDOS
SYSTEM  = LiCoO2_Li6PS5Cl_interface_static

ISTART  = 1
ICHARG  = 1
ENCUT   = 520
PREC    = Accurate
EDIFF   = 1E-7
NELM    = 200
ALGO    = All

ISPIN   = 2
LDAU    = .TRUE.
LDATYPE = 2
LDAUL   = -1 -1 3 -1
LDAUU   = 0  0  0  0 3.3
LDAUJ   = 0  0  0  0 0.0

IBRION  = -1
NSW     = 0
ISIF    = 2
ISMEAR  = -5         # tetrahedron – accurate DOS
SIGMA   = 0.01

IVDW    = 11
LWAVE   = .TRUE.
LCHARG  = .TRUE.
LORBIT  = 12         # full LDOS on each ion
LAECHG  = .TRUE.     # all-electron charge → Bader analysis

NCORE   = 8
KPAR    = 2
