# INCAR: Interface Geometry Relaxation
SYSTEM  = LiCoO2_Li6PS5Cl_interface

# Electronic minimization
ISTART  = 0
ICHARG  = 2
ENCUT   = 520        # eV  –  converged for both Li6PS5Cl and LiCoO2
PREC    = Accurate
EDIFF   = 1E-6       # eV  –  tight for accurate forces
NELM    = 150
ALGO    = Fast
LREAL   = Auto

# Spin-polarization (Co d-electrons)
ISPIN   = 2
MAGMOM  = 48*0.0 8*3.0 32*0.0   # example: adjust per supercell
LDAU    = .TRUE.
LDATYPE = 2
LDAUL   = -1 -1 3 -1   # L=3 for Co  (POTCAR order: Li P S Cl Co O)
LDAUU   = 0  0  0  0 3.3
LDAUJ   = 0  0  0  0 0.0

# Ionic relaxation
IBRION  = 2
NSW     = 300
ISIF    = 2          # relax ions only; fix cell shape
POTIM   = 0.02
EDIFFG  = -0.02      # eV/Å  –  force threshold

# k-points / smearing
ISMEAR  = 0
SIGMA   = 0.05

# Dispersion correction (vdW-D3)
IVDW    = 11

# Output
LWAVE   = .FALSE.
LCHARG  = .TRUE.
LORBIT  = 11

# Parallelization
NCORE   = 8
KPAR    = 2
